\ Model knapsack_40_1_4
\ LP format - for model browsing. Use MPS format to capture full model detail.
\ Signature: 0xe8445ac406a3125e
Minimize
  - 1021 y[0] - 431 y[1] - 697 y[2] - 376 y[3] - 343 y[4] - 201 y[5]
   - 520 y[6] - 701 y[7] - 257 y[8] - 1043 y[9] - 967 y[10] - 1010 y[11]
   - 938 y[12] - 571 y[13] - 617 y[14] - 461 y[15] - 754 y[16] - 840 y[17]
   - 583 y[18] - 1044 y[19] - 345 y[20] - 640 y[21] - 968 y[22] - 788 y[23]
   - 1033 y[24] - 228 y[25] - 1009 y[26] - 499 y[27] - 354 y[28]
   - 552 y[29] - 442 y[30] - 445 y[31] - 698 y[32] - 991 y[33] - 957 y[34]
   - 195 y[35] - 758 y[36] - 244 y[37] - 347 y[38] - 1099 y[39]
Subject To
 primal_upper: 921 y[0] + 331 y[1] + 597 y[2] + 276 y[3] + 243 y[4]
   + 101 y[5] + 420 y[6] + 601 y[7] + 157 y[8] + 943 y[9] + 867 y[10]
   + 910 y[11] + 838 y[12] + 471 y[13] + 517 y[14] + 361 y[15] + 654 y[16]
   + 740 y[17] + 483 y[18] + 944 y[19] + 245 y[20] + 540 y[21] + 868 y[22]
   + 688 y[23] + 933 y[24] + 128 y[25] + 909 y[26] + 399 y[27] + 254 y[28]
   + 452 y[29] + 342 y[30] + 345 y[31] + 598 y[32] + 891 y[33] + 857 y[34]
   + 95 y[35] + 658 y[36] + 144 y[37] + 247 y[38] + 999 y[39] + 92 z[0]
   + 33 z[1] + 60 z[2] + 28 z[3] + 24 z[4] + 10 z[5] + 42 z[6] + 60 z[7]
   + 16 z[8] + 94 z[9] + 87 z[10] + 91 z[11] + 84 z[12] + 47 z[13]
   + 52 z[14] + 36 z[15] + 65 z[16] + 74 z[17] + 48 z[18] + 94 z[19]
   + 24 z[20] + 54 z[21] + 87 z[22] + 69 z[23] + 93 z[24] + 13 z[25]
   + 91 z[26] + 40 z[27] + 25 z[28] + 45 z[29] + 34 z[30] + 34 z[31]
   + 60 z[32] + 89 z[33] + 86 z[34] + 10 z[35] + 66 z[36] + 14 z[37]
   + 25 z[38] + 100 z[39] <= 4393
 primal_lower0: - 36 y[0] - 37 y[1] - 27 y[2] - 135 y[3] - 40 y[4]
   - 118 y[5] - 105 y[6] - 75 y[7] - 153 y[8] - 87 y[9] - 44 y[10]
   - 150 y[11] - 143 y[12] - 138 y[13] - 146 y[14] - 10 y[15] - 54 y[16]
   - 31 y[17] - 71 y[18] - 159 y[19] - 51 y[20] - 121 y[21] - 153 y[22]
   - 49 y[23] - 92 y[24] - 103 y[25] - 28 y[26] - 132 y[27] - 107 y[28]
   - 8 y[29] - 61 y[30] - 120 y[31] - 36 y[32] - 24 y[33] - 78 y[34]
   - 53 y[35] - 178 y[36] - 160 y[37] - 136 y[38] - 37 y[39] + 3 u[0]
   + 316 u[1] + 532 u[2] + 504 u[3] + 502 u[4] + 886 u[5] + 563 u[6]
   + 926 u[7] + 448 u[8] + 295 u[9] + 89 u[10] + 443 u[11] + 969 u[12]
   + 39 u[13] + 139 u[14] + 501 u[15] + 665 u[16] + 236 u[17] + 154 u[18]
   + 364 u[19] + 327 u[20] + 125 u[21] + 363 u[22] + 613 u[23] + 600 u[24]
   + 753 u[25] + 700 u[26] + 876 u[27] + 264 u[28] + 941 u[29] + 388 u[30]
   + 358 u[31] + 745 u[32] + 212 u[33] + 128 u[34] + 716 u[35] + 133 u[36]
   + 680 u[37] + 414 u[38] + 3 u[39] <= 7165
 mccormick1[0]: - u[0] + z[0] <= 0
 mccormick1[1]: - u[1] + z[1] <= 0
 mccormick1[2]: - u[2] + z[2] <= 0
 mccormick1[3]: - u[3] + z[3] <= 0
 mccormick1[4]: - u[4] + z[4] <= 0
 mccormick1[5]: - u[5] + z[5] <= 0
 mccormick1[6]: - u[6] + z[6] <= 0
 mccormick1[7]: - u[7] + z[7] <= 0
 mccormick1[8]: - u[8] + z[8] <= 0
 mccormick1[9]: - u[9] + z[9] <= 0
 mccormick1[10]: - u[10] + z[10] <= 0
 mccormick1[11]: - u[11] + z[11] <= 0
 mccormick1[12]: - u[12] + z[12] <= 0
 mccormick1[13]: - u[13] + z[13] <= 0
 mccormick1[14]: - u[14] + z[14] <= 0
 mccormick1[15]: - u[15] + z[15] <= 0
 mccormick1[16]: - u[16] + z[16] <= 0
 mccormick1[17]: - u[17] + z[17] <= 0
 mccormick1[18]: - u[18] + z[18] <= 0
 mccormick1[19]: - u[19] + z[19] <= 0
 mccormick1[20]: - u[20] + z[20] <= 0
 mccormick1[21]: - u[21] + z[21] <= 0
 mccormick1[22]: - u[22] + z[22] <= 0
 mccormick1[23]: - u[23] + z[23] <= 0
 mccormick1[24]: - u[24] + z[24] <= 0
 mccormick1[25]: - u[25] + z[25] <= 0
 mccormick1[26]: - u[26] + z[26] <= 0
 mccormick1[27]: - u[27] + z[27] <= 0
 mccormick1[28]: - u[28] + z[28] <= 0
 mccormick1[29]: - u[29] + z[29] <= 0
 mccormick1[30]: - u[30] + z[30] <= 0
 mccormick1[31]: - u[31] + z[31] <= 0
 mccormick1[32]: - u[32] + z[32] <= 0
 mccormick1[33]: - u[33] + z[33] <= 0
 mccormick1[34]: - u[34] + z[34] <= 0
 mccormick1[35]: - u[35] + z[35] <= 0
 mccormick1[36]: - u[36] + z[36] <= 0
 mccormick1[37]: - u[37] + z[37] <= 0
 mccormick1[38]: - u[38] + z[38] <= 0
 mccormick1[39]: - u[39] + z[39] <= 0
 mccormick2[0]: - y[0] + z[0] <= 0
 mccormick2[1]: - y[1] + z[1] <= 0
 mccormick2[2]: - y[2] + z[2] <= 0
 mccormick2[3]: - y[3] + z[3] <= 0
 mccormick2[4]: - y[4] + z[4] <= 0
 mccormick2[5]: - y[5] + z[5] <= 0
 mccormick2[6]: - y[6] + z[6] <= 0
 mccormick2[7]: - y[7] + z[7] <= 0
 mccormick2[8]: - y[8] + z[8] <= 0
 mccormick2[9]: - y[9] + z[9] <= 0
 mccormick2[10]: - y[10] + z[10] <= 0
 mccormick2[11]: - y[11] + z[11] <= 0
 mccormick2[12]: - y[12] + z[12] <= 0
 mccormick2[13]: - y[13] + z[13] <= 0
 mccormick2[14]: - y[14] + z[14] <= 0
 mccormick2[15]: - y[15] + z[15] <= 0
 mccormick2[16]: - y[16] + z[16] <= 0
 mccormick2[17]: - y[17] + z[17] <= 0
 mccormick2[18]: - y[18] + z[18] <= 0
 mccormick2[19]: - y[19] + z[19] <= 0
 mccormick2[20]: - y[20] + z[20] <= 0
 mccormick2[21]: - y[21] + z[21] <= 0
 mccormick2[22]: - y[22] + z[22] <= 0
 mccormick2[23]: - y[23] + z[23] <= 0
 mccormick2[24]: - y[24] + z[24] <= 0
 mccormick2[25]: - y[25] + z[25] <= 0
 mccormick2[26]: - y[26] + z[26] <= 0
 mccormick2[27]: - y[27] + z[27] <= 0
 mccormick2[28]: - y[28] + z[28] <= 0
 mccormick2[29]: - y[29] + z[29] <= 0
 mccormick2[30]: - y[30] + z[30] <= 0
 mccormick2[31]: - y[31] + z[31] <= 0
 mccormick2[32]: - y[32] + z[32] <= 0
 mccormick2[33]: - y[33] + z[33] <= 0
 mccormick2[34]: - y[34] + z[34] <= 0
 mccormick2[35]: - y[35] + z[35] <= 0
 mccormick2[36]: - y[36] + z[36] <= 0
 mccormick2[37]: - y[37] + z[37] <= 0
 mccormick2[38]: - y[38] + z[38] <= 0
 mccormick2[39]: - y[39] + z[39] <= 0
 mccormick3[0]: y[0] + u[0] - z[0] <= 1
 mccormick3[1]: y[1] + u[1] - z[1] <= 1
 mccormick3[2]: y[2] + u[2] - z[2] <= 1
 mccormick3[3]: y[3] + u[3] - z[3] <= 1
 mccormick3[4]: y[4] + u[4] - z[4] <= 1
 mccormick3[5]: y[5] + u[5] - z[5] <= 1
 mccormick3[6]: y[6] + u[6] - z[6] <= 1
 mccormick3[7]: y[7] + u[7] - z[7] <= 1
 mccormick3[8]: y[8] + u[8] - z[8] <= 1
 mccormick3[9]: y[9] + u[9] - z[9] <= 1
 mccormick3[10]: y[10] + u[10] - z[10] <= 1
 mccormick3[11]: y[11] + u[11] - z[11] <= 1
 mccormick3[12]: y[12] + u[12] - z[12] <= 1
 mccormick3[13]: y[13] + u[13] - z[13] <= 1
 mccormick3[14]: y[14] + u[14] - z[14] <= 1
 mccormick3[15]: y[15] + u[15] - z[15] <= 1
 mccormick3[16]: y[16] + u[16] - z[16] <= 1
 mccormick3[17]: y[17] + u[17] - z[17] <= 1
 mccormick3[18]: y[18] + u[18] - z[18] <= 1
 mccormick3[19]: y[19] + u[19] - z[19] <= 1
 mccormick3[20]: y[20] + u[20] - z[20] <= 1
 mccormick3[21]: y[21] + u[21] - z[21] <= 1
 mccormick3[22]: y[22] + u[22] - z[22] <= 1
 mccormick3[23]: y[23] + u[23] - z[23] <= 1
 mccormick3[24]: y[24] + u[24] - z[24] <= 1
 mccormick3[25]: y[25] + u[25] - z[25] <= 1
 mccormick3[26]: y[26] + u[26] - z[26] <= 1
 mccormick3[27]: y[27] + u[27] - z[27] <= 1
 mccormick3[28]: y[28] + u[28] - z[28] <= 1
 mccormick3[29]: y[29] + u[29] - z[29] <= 1
 mccormick3[30]: y[30] + u[30] - z[30] <= 1
 mccormick3[31]: y[31] + u[31] - z[31] <= 1
 mccormick3[32]: y[32] + u[32] - z[32] <= 1
 mccormick3[33]: y[33] + u[33] - z[33] <= 1
 mccormick3[34]: y[34] + u[34] - z[34] <= 1
 mccormick3[35]: y[35] + u[35] - z[35] <= 1
 mccormick3[36]: y[36] + u[36] - z[36] <= 1
 mccormick3[37]: y[37] + u[37] - z[37] <= 1
 mccormick3[38]: y[38] + u[38] - z[38] <= 1
 mccormick3[39]: y[39] + u[39] - z[39] <= 1
Bounds
Binaries
 y[0] y[1] y[2] y[3] y[4] y[5] y[6] y[7] y[8] y[9] y[10] y[11] y[12] y[13]
 y[14] y[15] y[16] y[17] y[18] y[19] y[20] y[21] y[22] y[23] y[24] y[25]
 y[26] y[27] y[28] y[29] y[30] y[31] y[32] y[33] y[34] y[35] y[36] y[37]
 y[38] y[39] u[0] u[1] u[2] u[3] u[4] u[5] u[6] u[7] u[8] u[9] u[10] u[11]
 u[12] u[13] u[14] u[15] u[16] u[17] u[18] u[19] u[20] u[21] u[22] u[23]
 u[24] u[25] u[26] u[27] u[28] u[29] u[30] u[31] u[32] u[33] u[34] u[35]
 u[36] u[37] u[38] u[39] z[0] z[1] z[2] z[3] z[4] z[5] z[6] z[7] z[8] z[9]
 z[10] z[11] z[12] z[13] z[14] z[15] z[16] z[17] z[18] z[19] z[20] z[21]
 z[22] z[23] z[24] z[25] z[26] z[27] z[28] z[29] z[30] z[31] z[32] z[33]
 z[34] z[35] z[36] z[37] z[38] z[39]
End
